problems/VanDerWaerdenNumbers/VanDerWaerden-models/noch/O2/lingeling/model_3-k3l4n37-solution000001.solution
language Essence 1.3

letting p be
        partition({1, 3, 4, 6, 10, 11, 12, 15, 19, 22, 25, 33, 36}, {2, 5, 18, 20, 21, 26, 27, 30, 32, 35, 37},
                  {7, 8, 9, 13, 14, 16, 17, 23, 24, 28, 29, 31, 34})
